p cnf 50 20
x 2 -3 -4 -7 11 13 -15 17 20 21 -22 -24 -25 -26 29 30 34 39 40 44 -46 0
x 1 -2 -4 -6 -7 9 10 -13 -15 16 -17 18 -19 -20 26 -29 -30 -31 32 37 -38 -39 -40 -41 -42 46 48 50 0
x 2 -3 -4 8 -10 11 -13 -16 17 18 -21 22 26 -27 -30 31 -32 -33 -34 -40 -41 43 -44 -46 48 0
x -1 2 -3 6 -8 -10 12 -13 16 19 20 21 23 24 25 27 -29 30 31 33 34 35 36 -37 40 -43 -48 -49 0
x 1 -5 -7 -8 -9 10 12 13 -16 19 22 -23 24 25 -26 -27 31 -35 37 -39 43 44 -45 49 0
x 1 -2 3 8 11 -13 14 19 -22 -24 -25 -26 -28 33 38 -39 41 -42 -45 46 0
x 1 -3 4 6 -7 11 -14 15 -21 22 -24 -26 30 31 -35 -37 42 -43 44 45 -47 48 0
x 1 -3 -4 -6 -7 8 9 -11 -13 -14 17 -18 20 21 -22 25 32 -34 -36 -37 -38 39 41 42 -45 47 -48 -49 0
x 1 -3 4 6 -8 -10 -14 15 18 19 21 -22 -23 -27 -28 29 30 32 34 35 -36 37 -42 46 49 0
x -3 9 10 -12 -18 -19 -22 -28 -31 -33 34 -36 -39 -41 43 44 -46 -47 -49 50 0
x 1 5 15 21 23 26 -27 -31 33 36 37 39 41 42 -43 -44 45 -46 50 0
x 2 -5 -6 8 9 10 11 -13 -17 -18 -20 -25 29 30 -32 35 36 37 38 39 40 41 -42 -43 -44 -47 48 50 0
x -1 -3 7 8 12 -13 14 -15 -20 -23 -24 29 30 31 32 -33 -43 -44 -46 -47 0
x 1 2 6 12 14 17 -20 -28 31 -33 -35 -36 -38 40 42 -43 -45 -46 -47 -50 0
x 4 7 9 -13 15 16 -17 -19 -20 -29 34 36 -37 39 41 42 -50 0
x -3 5 -7 17 18 -21 -22 27 -29 -30 31 -33 35 38 -39 41 43 46 48 49 -50 0
x -2 -4 -10 -11 -13 -16 -17 -21 -22 -24 -25 -27 33 -34 35 37 38 -40 44 -47 49 0
x -8 10 11 12 13 -15 -17 20 -29 31 -32 35 38 -41 44 -45 -46 -49 50 0
x -1 3 4 -5 -6 -7 11 13 15 16 -18 -19 21 22 -25 26 -27 -28 -30 32 33 36 37 -42 -45 -48 0
x -2 -3 -5 -10 15 -18 19 21 23 24 -25 26 27 28 -29 -31 -32 33 -34 39 -40 41 -42 -44 45 46 48 0
g -20